c description: Random 3-CNF over 10 variables and 30 clauses
p cnf 10 30
-6 -8 -10 0
-2 -5 -9 0
5 6 -10 0
-2 5 -6 0
4 8 -10 0
1 -2 6 0
-4 8 10 0
2 4 -7 0
-2 4 -6 0
-1 2 9 0
1 -6 -10 0
-8 9 10 0
1 -4 -7 0
7 -9 -10 0
-5 6 9 0
-4 -6 -8 0
4 6 8 0
-4 -5 8 0
2 -3 -7 0
-4 7 9 0
4 -8 -9 0
4 7 9 0
3 -4 7 0
1 -2 7 0
-2 3 7 0
-2 -7 8 0
-7 -8 9 0
-1 -4 -7 0
-2 6 10 0
-1 7 -10 0